certificates/rado_a10_c224_N29.drat
-25 22 -27 -28 -29 0
22 -27 -28 -29 0
d -25 22 -27 -28 -29 0
-22 -28 23 0
-28 -29 0
d 22 -27 -28 -29 0
-29 0
23 0
-17 0
-27 0
22 28 0
-24 -22 0
d -6 -24 -22 0
-22 0
18 0
26 0
25 0
13 0
21 0
28 0
-24 0
-12 0
-20 0
-2 0
-19 0
-11 0
-7 0
-15 0
-9 0
-14 0
-4 0
8 0
6 0
0
